ampl/survo_puzzle4.dat
# http://en.wikipedia.org/wiki/Survo_Puzzle, third example
# Same as survo_puzzle3.dat but with hints
# difficulty 0
# 
param r := 3;
param c := 4;

param rowsums :=
   1 24
   2 15
   3 39
;

param colsums :=
   1 21
   2 10
   3 18
   4 29
;

param matrix: 1 2 3 4:=
   1  7 0  5 0
   2  0 1  0 8
   3  0 0 11 0
;
