essence_savile_row/survo_puzzle4.param
$ http://en.wikipedia.org/wiki/Survo_Puzzle, third example
$ difficulty 150 ("open puzzle", i.e. no hints)
$ It's an unique solution.
language ESSENCE' 1.0
letting r be 3
letting c be 4
letting rowsums be [24,15,39]
letting colsums be [21,10,18,29]
letting game be
   [
     [7, 0, 5, 0],
     [0, 1, 0, 0],
     [0, 0, 11, 0]
   ]
